* ENCODING=ISO-8859-1
NAME          CPLEX
ROWS
 N  obj1    
 G  c1      
 G  c2      
 G  c3      
 G  c4      
 G  c5      
 G  c6      
 G  c7      
 G  c8      
 G  c9      
 G  c10     
 G  c11     
 G  c12     
 G  c13     
 G  c14     
 G  c15     
 G  c16     
 G  c17     
 G  c18     
 G  c19     
 G  c20     
 G  c21     
 G  c22     
 G  c23     
 G  c24     
 G  c25     
 G  c26     
 G  c27     
 G  c28     
 G  c29     
 G  c30     
 G  c31     
 G  c32     
 G  c33     
 G  c34     
 G  c35     
 G  c36     
 G  c37     
 G  c38     
 G  c39     
 G  c40     
 G  c41     
 G  c42     
 G  c43     
 G  c44     
 G  c45     
 G  c46     
 G  c47     
 G  c48     
 G  c49     
 G  c50     
COLUMNS
    MARK0000  'MARKER'                 'INTORG'
    x1        obj1                            1
    x1        c2                            709
    x1        c17                           758
    x1        c21                           191
    x1        c47                           595
    x2        obj1                            1
    x2        c1                            132
    x2        c19                           255
    x2        c38                           277
    x3        obj1                            1
    x3        c1                            995
    x3        c4                            912
    x3        c46                           151
    x3        c50                           387
    x4        obj1                            1
    x4        c7                            489
    x4        c19                           838
    x4        c29                           275
    x4        c35                           326
    x4        c50                           300
    x5        obj1                            1
    x5        c1                            648
    x5        c9                            977
    x5        c17                           193
    x5        c27                           924
    x5        c43                           795
    x5        c48                           914
    x6        obj1                            1
    x6        c2                            905
    x7        obj1                            1
    x7        c14                           110
    x7        c15                           349
    x8        obj1                            1
    x8        c6                            775
    x8        c27                           281
    x8        c30                           581
    x8        c37                           984
    x8        c45                           480
    x8        c48                           753
    x9        obj1                            1
    x9        c9                            712
    x9        c12                           599
    x9        c43                           293
    x9        c45                           570
    x10       obj1                            1
    x10       c3                            298
    x10       c21                           870
    x10       c28                           822
    x10       c41                           684
    x11       obj1                            1
    x11       c3                            213
    x11       c13                           287
    x11       c14                           642
    x11       c19                           253
    x11       c33                           941
    x11       c42                           689
    x11       c45                           364
    x12       obj1                            1
    x12       c10                           456
    x12       c28                           882
    x12       c29                           781
    x12       c35                           837
    x12       c38                           557
    x12       c45                           213
    x13       obj1                            1
    x13       c10                           124
    x13       c16                           597
    x13       c18                           185
    x13       c20                           997
    x13       c21                           150
    x13       c24                           778
    x13       c35                           843
    x13       c50                           926
    x14       obj1                            1
    x14       c11                           984
    x14       c36                           356
    x14       c46                           759
    x15       obj1                            1
    x15       c17                           361
    x15       c36                           329
    x15       c50                           317
    x16       obj1                            1
    x16       c4                            392
    x16       c5                            251
    x16       c17                           585
    x16       c22                           181
    x16       c25                           785
    x16       c39                           943
    x16       c41                           774
    x16       c42                           507
    x16       c49                           468
    x17       obj1                            1
    x17       c22                           351
    x17       c27                           594
    x17       c35                           640
    x17       c43                           669
    x17       c46                           945
    x18       obj1                            1
    x18       c2                            671
    x18       c24                           819
    x18       c27                           168
    x18       c28                           569
    x19       obj1                            1
    x19       c6                            422
    x19       c43                           552
    x20       obj1                            1
    x20       c12                           443
    x20       c16                           577
    x20       c42                           314
    x20       c43                           521
    x21       obj1                            1
    x21       c8                            914
    x21       c28                           817
    x21       c37                           854
    x21       c49                           601
    x22       obj1                            1
    x22       c2                            863
    x22       c4                            959
    x22       c10                           853
    x22       c22                           756
    x22       c26                           517
    x22       c50                           822
    x23       obj1                            1
    x23       c13                           493
    x23       c24                           393
    x23       c30                           191
    x23       c31                           395
    x23       c39                           807
    x24       obj1                            1
    x24       c2                            523
    x24       c10                           770
    x24       c15                           737
    x24       c22                           617
    x24       c40                           495
    x24       c42                           613
    x25       obj1                            1
    x25       c5                            368
    x25       c13                           198
    x25       c15                           378
    x26       obj1                            1
    x26       c34                           380
    x27       obj1                            1
    x27       c1                            192
    x27       c10                           429
    x27       c26                           384
    x27       c42                           744
    x28       obj1                            1
    x28       c22                           801
    x28       c38                           205
    x28       c39                           959
    x29       obj1                            1
    x29       c11                           437
    x29       c31                           833
    x29       c35                           445
    x29       c43                           825
    x29       c45                           938
    x29       c47                           911
    x30       obj1                            1
    x30       c4                            724
    x30       c25                           927
    x31       obj1                            1
    x31       c10                           109
    x31       c12                           527
    x31       c28                           593
    x31       c34                           338
    x31       c39                           296
    x31       c44                           326
    x31       c49                           379
    x32       obj1                            1
    x32       c16                           858
    x32       c39                           563
    x33       obj1                            1
    x33       c14                           676
    x33       c29                           406
    x33       c33                           124
    x33       c36                           195
    x33       c49                           632
    x34       obj1                            1
    x34       c2                            239
    x34       c6                            144
    x34       c12                           946
    x34       c20                           768
    x34       c26                           280
    x34       c43                           392
    x34       c48                           911
    x35       obj1                            1
    x35       c19                           996
    x35       c21                           337
    x35       c41                           971
    x36       obj1                            1
    x36       c5                            146
    x36       c44                           718
    x36       c45                           958
    x36       c50                           414
    x37       obj1                            1
    x37       c8                            479
    x37       c18                           816
    x37       c35                           926
    x37       c37                           591
    x37       c44                           715
    x38       obj1                            1
    x38       c19                           637
    x38       c20                          1000
    x38       c23                           125
    x39       obj1                            1
    x39       c7                            105
    x39       c10                           687
    x39       c14                           509
    x39       c18                           658
    x39       c50                           592
    x40       obj1                            1
    x40       c13                           198
    x40       c16                           867
    x40       c18                           766
    x40       c25                           955
    x40       c32                           566
    x40       c34                           107
    x41       obj1                            1
    x41       c2                            899
    x41       c6                            558
    x41       c9                            745
    x41       c30                           352
    x41       c32                           888
    x41       c36                           908
    x41       c38                           721
    x41       c39                           638
    x41       c40                           400
    x42       obj1                            1
    x42       c45                           859
    x43       obj1                            1
    x43       c8                            298
    x43       c11                           958
    x43       c27                           786
    x43       c32                           611
    x43       c33                           644
    x43       c46                           597
    x43       c47                           574
    x44       obj1                            1
    x44       c1                            154
    x44       c4                            376
    x44       c21                           806
    x44       c46                           494
    x45       obj1                            1
    x45       c4                            218
    x45       c13                           285
    x45       c15                           379
    x45       c23                           338
    x45       c29                           124
    x45       c33                           701
    x46       obj1                            1
    x46       c9                            300
    x46       c12                           811
    x46       c14                           416
    x46       c19                           695
    x46       c20                           108
    x46       c23                           150
    x47       obj1                            1
    x47       c3                            201
    x47       c6                            254
    x47       c17                           462
    x47       c19                           842
    x47       c41                           598
    x48       obj1                            1
    x48       c7                            447
    x48       c16                           272
    x48       c31                           503
    x48       c38                           475
    x48       c40                           224
    x49       obj1                            1
    x49       c1                            789
    x49       c17                           825
    x49       c21                           941
    x49       c24                           146
    x49       c27                           807
    x50       obj1                            1
    x50       c14                           799
    x50       c17                           552
    x50       c28                           160
    x50       c31                           919
    x50       c38                           309
    x50       c42                           234
    x50       c47                           580
    MARK0001  'MARKER'                 'INTEND'
RHS
    rhs       c1                           1455
    rhs       c2                           2405
    rhs       c3                            356
    rhs       c4                           1791
    rhs       c5                            383
    rhs       c6                           1077
    rhs       c7                            521
    rhs       c8                            846
    rhs       c9                           1367
    rhs       c10                          1714
    rhs       c11                          1190
    rhs       c12                          1663
    rhs       c13                           731
    rhs       c14                          1576
    rhs       c15                           922
    rhs       c16                          1586
    rhs       c17                          1868
    rhs       c18                          1213
    rhs       c19                          2258
    rhs       c20                          1437
    rhs       c21                          1648
    rhs       c22                          1353
    rhs       c23                           307
    rhs       c24                          1068
    rhs       c25                          1334
    rhs       c26                           591
    rhs       c27                          1780
    rhs       c28                          1922
    rhs       c29                           793
    rhs       c30                           562
    rhs       c31                          1325
    rhs       c32                          1033
    rhs       c33                          1205
    rhs       c34                           413
    rhs       c35                          2009
    rhs       c36                           894
    rhs       c37                          1215
    rhs       c38                          1272
    rhs       c39                          2103
    rhs       c40                           560
    rhs       c41                          1514
    rhs       c42                          1551
    rhs       c43                          2024
    rhs       c44                           880
    rhs       c45                          2191
    rhs       c46                          1473
    rhs       c47                          1330
    rhs       c48                          1289
    rhs       c49                          1040
    rhs       c50                          1879
BOUNDS
 LI bnd       x1        0
 LI bnd       x2        0
 LI bnd       x3        0
 LI bnd       x4        0
 LI bnd       x5        0
 LI bnd       x6        0
 LI bnd       x7        0
 LI bnd       x8        0
 LI bnd       x9        0
 LI bnd       x10       0
 LI bnd       x11       0
 LI bnd       x12       0
 LI bnd       x13       0
 LI bnd       x14       0
 LI bnd       x15       0
 LI bnd       x16       0
 LI bnd       x17       0
 LI bnd       x18       0
 LI bnd       x19       0
 LI bnd       x20       0
 LI bnd       x21       0
 LI bnd       x22       0
 LI bnd       x23       0
 LI bnd       x24       0
 LI bnd       x25       0
 LI bnd       x26       0
 LI bnd       x27       0
 LI bnd       x28       0
 LI bnd       x29       0
 LI bnd       x30       0
 LI bnd       x31       0
 LI bnd       x32       0
 LI bnd       x33       0
 LI bnd       x34       0
 LI bnd       x35       0
 LI bnd       x36       0
 LI bnd       x37       0
 LI bnd       x38       0
 LI bnd       x39       0
 LI bnd       x40       0
 LI bnd       x41       0
 LI bnd       x42       0
 LI bnd       x43       0
 LI bnd       x44       0
 LI bnd       x45       0
 LI bnd       x46       0
 LI bnd       x47       0
 LI bnd       x48       0
 LI bnd       x49       0
 LI bnd       x50       0
ENDATA
